c Maximum weighted clique instances generated from exactcolors.
c cutoff: 4329604.
c A clique of value > scalef (4329604) defines an improving stable sets for coloring.
p edge 65 0
n 1 4329604
n 2 4329604
n 3 4329604
n 4 4329604
n 5 4329604
n 6 4329604
n 7 4329604
n 8 4329604
n 9 4329604
n 10 4329604
n 11 4329604
n 12 4329604
n 13 4329604
n 14 4329604
n 15 4329604
n 16 4329604
n 17 4329604
n 18 4329604
n 19 4329604
n 20 4329604
n 21 4329604
n 22 4329604
n 23 4329604
n 24 4329604
n 25 4329604
n 26 4329604
n 27 4329604
n 28 4329604
n 29 4329604
n 30 4329604
n 31 4329604
n 32 4329604
n 33 4329604
n 34 4329604
n 35 4329604
n 36 4329604
n 37 4329604
n 38 4329604
n 39 4329604
n 40 4329604
n 41 4329604
n 42 4329604
n 43 4329604
n 44 4329604
n 45 4329604
n 46 4329604
n 47 4329604
n 48 4329604
n 49 4329604
n 50 4329604
n 51 4329604
n 52 4329604
n 53 4329604
n 54 4329604
n 55 4329604
n 56 4329604
n 57 4329604
n 58 4329604
n 59 4329604
n 60 4329604
n 61 4329604
n 62 4329604
n 63 4329604
n 64 4329604
n 65 4329604
